NAME : 10_3_3_2_(50).dat
COMMENT : Henke, Speranza, Wäscher, 2015
TYPE : MCVRP
DIMENSION : 11
EDGE_WEIGHT_TYPE : DISTANCE_MATRIX
CAPACITY : 1000
VEHICLES : 3
PRODUCT TYPES : 3
COMPARTMENTS : 3
NODE_COORD_SECTION
1 50 50
2 65.13 0.79
3 13.19 59.9
4 16.4 20.53
5 72.99 67.78
6 44.35 81.72
7 31.55 21.36
8 24.35 8.19
9 22.55 84.99
10 41.54 16.49
11 59.34 48.8
DEMAND_SECTION
1 0 0 0
2 123 0 92
3 21 55 0
4 98 52 0
5 56 0 174
6 64 34 0
7 46 110 0
8 60 35 0
9 87 145 0
10 125 0 46
11 100 37 0
DEPOT_SECTION
1
EOF